Route #1: 46 8 19 54 20 37 
Route #2: 53 11 14 35 7 
Route #3: 39 9 50 32 51 
Route #4: 52 5 36 47 48 30 
Route #5: 26 38 31 10 12 
Route #6: 17 40 
Route #7: 16 3 44 49 24 18 25 
Route #8: 34 27 13 29 45 4 
Route #9: 23 41 1 43 42 33 6 
Route #10: 15 21 28 22 2 
cost 799.158
execution_time 21.139
